TYPE : Vertex Cover
DIMENSION: 38
EDGE_DATA_SECTION:
0 2
0 8
0 15
0 20
0 33
0 34
1 7
1 16
1 17
1 30
1 32
2 6
2 23
2 28
2 30
3 7
3 9
3 28
3 31
4 10
4 27
4 36
5 14
5 23
5 33
6 12
6 28
7 17
8 35
9 15
9 35
10 19
10 23
10 31
11 13
11 24
12 13
12 21
13 14
13 25
15 37
16 17
16 20
16 21
16 22
16 28
16 31
17 24
17 30
18 22
18 26
18 27
18 29
19 23
19 28
19 35
21 26
21 32
22 32
22 36
24 27
25 33
30 31
30 35
31 32
32 37
-1
VERTEX_DEGREE:
6.0 5.0 5.0 4.0 3.0 3.0 3.0 3.0 2.0 3.0 4.0 2.0 3.0 4.0 2.0 3.0 7.0 5.0 4.0 4.0 2.0 4.0 4.0 4.0 3.0 2.0 2.0 3.0 5.0 1.0 5.0 5.0 5.0 3.0 1.0 4.0 2.0 2.0
VERTEX_COVER:
0 1 2 3 4 5 6 7 10 13 15 16 18 19 21 22 24 25 30 32 35
EOF
